; benchmark generated from python API
(set-info :status unknown)
(declare-fun cell_1_8 () Int)
(declare-fun cell_1_9 () Int)
(declare-fun cell_2_2 () Int)
(declare-fun cell_2_5 () Int)
(declare-fun cell_3_1 () Int)
(declare-fun cell_3_4 () Int)
(declare-fun cell_4_2 () Int)
(declare-fun cell_4_9 () Int)
(declare-fun cell_5_1 () Int)
(declare-fun cell_5_6 () Int)
(declare-fun cell_6_6 () Int)
(declare-fun cell_6_8 () Int)
(declare-fun cell_7_3 () Int)
(declare-fun cell_7_7 () Int)
(declare-fun cell_8_5 () Int)
(declare-fun cell_8_7 () Int)
(declare-fun cell_9_3 () Int)
(declare-fun cell_1_1 () Int)
(declare-fun cell_2_1 () Int)
(declare-fun cell_4_1 () Int)
(declare-fun cell_6_1 () Int)
(declare-fun cell_7_1 () Int)
(declare-fun cell_8_1 () Int)
(declare-fun cell_9_1 () Int)
(declare-fun cell_1_2 () Int)
(declare-fun cell_3_2 () Int)
(declare-fun cell_5_2 () Int)
(declare-fun cell_6_2 () Int)
(declare-fun cell_7_2 () Int)
(declare-fun cell_8_2 () Int)
(declare-fun cell_9_2 () Int)
(declare-fun cell_1_3 () Int)
(declare-fun cell_2_3 () Int)
(declare-fun cell_3_3 () Int)
(declare-fun cell_4_3 () Int)
(declare-fun cell_5_3 () Int)
(declare-fun cell_6_3 () Int)
(declare-fun cell_8_3 () Int)
(declare-fun cell_1_4 () Int)
(declare-fun cell_2_4 () Int)
(declare-fun cell_4_4 () Int)
(declare-fun cell_5_4 () Int)
(declare-fun cell_6_4 () Int)
(declare-fun cell_7_4 () Int)
(declare-fun cell_8_4 () Int)
(declare-fun cell_9_4 () Int)
(declare-fun cell_1_5 () Int)
(declare-fun cell_3_5 () Int)
(declare-fun cell_4_5 () Int)
(declare-fun cell_5_5 () Int)
(declare-fun cell_6_5 () Int)
(declare-fun cell_7_5 () Int)
(declare-fun cell_9_5 () Int)
(declare-fun cell_1_6 () Int)
(declare-fun cell_2_6 () Int)
(declare-fun cell_3_6 () Int)
(declare-fun cell_4_6 () Int)
(declare-fun cell_7_6 () Int)
(declare-fun cell_8_6 () Int)
(declare-fun cell_9_6 () Int)
(declare-fun cell_1_7 () Int)
(declare-fun cell_2_7 () Int)
(declare-fun cell_3_7 () Int)
(declare-fun cell_4_7 () Int)
(declare-fun cell_5_7 () Int)
(declare-fun cell_6_7 () Int)
(declare-fun cell_9_7 () Int)
(declare-fun cell_2_8 () Int)
(declare-fun cell_3_8 () Int)
(declare-fun cell_4_8 () Int)
(declare-fun cell_5_8 () Int)
(declare-fun cell_7_8 () Int)
(declare-fun cell_8_8 () Int)
(declare-fun cell_9_8 () Int)
(declare-fun cell_2_9 () Int)
(declare-fun cell_3_9 () Int)
(declare-fun cell_5_9 () Int)
(declare-fun cell_6_9 () Int)
(declare-fun cell_7_9 () Int)
(declare-fun cell_8_9 () Int)
(declare-fun cell_9_9 () Int)
(assert
 (= cell_1_8 1))
(assert
 (= cell_1_9 2))
(assert
 (= cell_2_2 1))
(assert
 (= cell_2_5 2))
(assert
 (= cell_3_1 2))
(assert
 (= cell_3_4 1))
(assert
 (= cell_4_2 2))
(assert
 (= cell_4_9 1))
(assert
 (= cell_5_1 1))
(assert
 (= cell_5_6 2))
(assert
 (= cell_6_6 1))
(assert
 (= cell_6_8 2))
(assert
 (= cell_7_3 2))
(assert
 (= cell_7_7 1))
(assert
 (= cell_8_5 1))
(assert
 (= cell_8_7 2))
(assert
 (= cell_9_3 1))
(assert
 (let (($x2294 (= cell_1_1 9)))
 (let (($x1955 (= cell_1_1 8)))
 (let (($x2813 (= cell_1_1 7)))
 (let (($x748 (= cell_1_1 6)))
 (let (($x565 (= cell_1_1 5)))
 (let (($x3015 (= cell_1_1 4)))
 (let (($x1038 (= cell_1_1 3)))
 (let (($x811 (= cell_1_1 2)))
 (let (($x2858 (= cell_1_1 1)))
 (or $x2858 $x811 $x1038 $x3015 $x565 $x748 $x2813 $x1955 $x2294)))))))))))
(assert
 (let (($x2751 (= cell_2_1 9)))
 (let (($x1821 (= cell_2_1 8)))
 (let (($x168 (= cell_2_1 7)))
 (let (($x754 (= cell_2_1 6)))
 (let (($x3070 (= cell_2_1 5)))
 (let (($x2969 (= cell_2_1 4)))
 (let (($x3025 (= cell_2_1 3)))
 (let (($x2080 (= cell_2_1 2)))
 (let (($x3159 (= cell_2_1 1)))
 (or $x3159 $x2080 $x3025 $x2969 $x3070 $x754 $x168 $x1821 $x2751)))))))))))
(assert
 (let (($x337 (= cell_3_1 2)))
 (or (= cell_3_1 1) $x337 (= cell_3_1 3) (= cell_3_1 4) (= cell_3_1 5) (= cell_3_1 6) (= cell_3_1 7) (= cell_3_1 8) (= cell_3_1 9))))
(assert
 (let (($x2664 (= cell_4_1 9)))
 (let (($x1024 (= cell_4_1 8)))
 (let (($x1643 (= cell_4_1 7)))
 (let (($x2120 (= cell_4_1 6)))
 (let (($x923 (= cell_4_1 5)))
 (let (($x2607 (= cell_4_1 4)))
 (let (($x3244 (= cell_4_1 3)))
 (let (($x1087 (= cell_4_1 2)))
 (let (($x2644 (= cell_4_1 1)))
 (or $x2644 $x1087 $x3244 $x2607 $x923 $x2120 $x1643 $x1024 $x2664)))))))))))
(assert
 (let (($x508 (= cell_5_1 1)))
 (or $x508 (= cell_5_1 2) (= cell_5_1 3) (= cell_5_1 4) (= cell_5_1 5) (= cell_5_1 6) (= cell_5_1 7) (= cell_5_1 8) (= cell_5_1 9))))
(assert
 (let (($x1980 (= cell_6_1 9)))
 (let (($x1171 (= cell_6_1 8)))
 (let (($x461 (= cell_6_1 7)))
 (let (($x1413 (= cell_6_1 6)))
 (let (($x2236 (= cell_6_1 5)))
 (let (($x2081 (= cell_6_1 4)))
 (let (($x831 (= cell_6_1 3)))
 (let (($x3026 (= cell_6_1 2)))
 (let (($x79 (= cell_6_1 1)))
 (or $x79 $x3026 $x831 $x2081 $x2236 $x1413 $x461 $x1171 $x1980)))))))))))
(assert
 (let (($x2307 (= cell_7_1 9)))
 (let (($x1580 (= cell_7_1 8)))
 (let (($x12 (= cell_7_1 7)))
 (let (($x2429 (= cell_7_1 6)))
 (let (($x1548 (= cell_7_1 5)))
 (let (($x563 (= cell_7_1 4)))
 (let (($x1995 (= cell_7_1 3)))
 (let (($x1101 (= cell_7_1 2)))
 (let (($x2728 (= cell_7_1 1)))
 (or $x2728 $x1101 $x1995 $x563 $x1548 $x2429 $x12 $x1580 $x2307)))))))))))
(assert
 (let (($x2513 (= cell_8_1 9)))
 (let (($x347 (= cell_8_1 8)))
 (let (($x1082 (= cell_8_1 7)))
 (let (($x668 (= cell_8_1 6)))
 (let (($x2925 (= cell_8_1 5)))
 (let (($x6923 (= cell_8_1 4)))
 (let (($x1189 (= cell_8_1 3)))
 (let (($x1194 (= cell_8_1 2)))
 (let (($x3136 (= cell_8_1 1)))
 (or $x3136 $x1194 $x1189 $x6923 $x2925 $x668 $x1082 $x347 $x2513)))))))))))
(assert
 (let (($x1507 (= cell_9_1 9)))
 (let (($x1830 (= cell_9_1 8)))
 (let (($x2520 (= cell_9_1 7)))
 (let (($x3034 (= cell_9_1 6)))
 (let (($x289 (= cell_9_1 5)))
 (let (($x1314 (= cell_9_1 4)))
 (let (($x1562 (= cell_9_1 3)))
 (let (($x2790 (= cell_9_1 2)))
 (let (($x904 (= cell_9_1 1)))
 (or $x904 $x2790 $x1562 $x1314 $x289 $x3034 $x2520 $x1830 $x1507)))))))))))
(assert
 (let (($x354 (= cell_1_2 9)))
 (let (($x2182 (= cell_1_2 8)))
 (let (($x33 (= cell_1_2 7)))
 (let (($x2609 (= cell_1_2 6)))
 (let (($x3253 (= cell_1_2 5)))
 (let (($x2035 (= cell_1_2 4)))
 (let (($x1135 (= cell_1_2 3)))
 (let (($x1868 (= cell_1_2 2)))
 (let (($x2302 (= cell_1_2 1)))
 (or $x2302 $x1868 $x1135 $x2035 $x3253 $x2609 $x33 $x2182 $x354)))))))))))
(assert
 (let (($x584 (= cell_2_2 1)))
 (or $x584 (= cell_2_2 2) (= cell_2_2 3) (= cell_2_2 4) (= cell_2_2 5) (= cell_2_2 6) (= cell_2_2 7) (= cell_2_2 8) (= cell_2_2 9))))
(assert
 (let (($x2335 (= cell_3_2 9)))
 (let (($x920 (= cell_3_2 8)))
 (let (($x3082 (= cell_3_2 7)))
 (let (($x749 (= cell_3_2 6)))
 (let (($x751 (= cell_3_2 5)))
 (let (($x69 (= cell_3_2 4)))
 (let (($x1363 (= cell_3_2 3)))
 (let (($x951 (= cell_3_2 2)))
 (let (($x755 (= cell_3_2 1)))
 (or $x755 $x951 $x1363 $x69 $x751 $x749 $x3082 $x920 $x2335)))))))))))
(assert
 (let (($x113 (= cell_4_2 2)))
 (or (= cell_4_2 1) $x113 (= cell_4_2 3) (= cell_4_2 4) (= cell_4_2 5) (= cell_4_2 6) (= cell_4_2 7) (= cell_4_2 8) (= cell_4_2 9))))
(assert
 (let (($x2970 (= cell_5_2 9)))
 (let (($x2918 (= cell_5_2 8)))
 (let (($x1537 (= cell_5_2 7)))
 (let (($x1807 (= cell_5_2 6)))
 (let (($x1818 (= cell_5_2 5)))
 (let (($x4469 (= cell_5_2 4)))
 (let (($x969 (= cell_5_2 3)))
 (let (($x1178 (= cell_5_2 2)))
 (let (($x742 (= cell_5_2 1)))
 (or $x742 $x1178 $x969 $x4469 $x1818 $x1807 $x1537 $x2918 $x2970)))))))))))
(assert
 (let (($x863 (= cell_6_2 9)))
 (let (($x2560 (= cell_6_2 8)))
 (let (($x790 (= cell_6_2 7)))
 (let (($x1863 (= cell_6_2 6)))
 (let (($x640 (= cell_6_2 5)))
 (let (($x1812 (= cell_6_2 4)))
 (let (($x2027 (= cell_6_2 3)))
 (let (($x476 (= cell_6_2 2)))
 (let (($x3233 (= cell_6_2 1)))
 (or $x3233 $x476 $x2027 $x1812 $x640 $x1863 $x790 $x2560 $x863)))))))))))
(assert
 (let (($x3299 (= cell_7_2 9)))
 (let (($x121 (= cell_7_2 8)))
 (let (($x2901 (= cell_7_2 7)))
 (let (($x1961 (= cell_7_2 6)))
 (let (($x3760 (= cell_7_2 5)))
 (let (($x1149 (= cell_7_2 4)))
 (let (($x3088 (= cell_7_2 3)))
 (let (($x1007 (= cell_7_2 2)))
 (let (($x2353 (= cell_7_2 1)))
 (or $x2353 $x1007 $x3088 $x1149 $x3760 $x1961 $x2901 $x121 $x3299)))))))))))
(assert
 (let (($x213 (= cell_8_2 9)))
 (let (($x2601 (= cell_8_2 8)))
 (let (($x6826 (= cell_8_2 7)))
 (let (($x936 (= cell_8_2 6)))
 (let (($x2928 (= cell_8_2 5)))
 (let (($x2612 (= cell_8_2 4)))
 (let (($x2795 (= cell_8_2 3)))
 (let (($x2991 (= cell_8_2 2)))
 (let (($x3085 (= cell_8_2 1)))
 (or $x3085 $x2991 $x2795 $x2612 $x2928 $x936 $x6826 $x2601 $x213)))))))))))
(assert
 (let (($x2040 (= cell_9_2 9)))
 (let (($x356 (= cell_9_2 8)))
 (let (($x615 (= cell_9_2 7)))
 (let (($x180 (= cell_9_2 6)))
 (let (($x3056 (= cell_9_2 5)))
 (let (($x2111 (= cell_9_2 4)))
 (let (($x1235 (= cell_9_2 3)))
 (let (($x2630 (= cell_9_2 2)))
 (let (($x1095 (= cell_9_2 1)))
 (or $x1095 $x2630 $x1235 $x2111 $x3056 $x180 $x615 $x356 $x2040)))))))))))
(assert
 (let (($x642 (= cell_1_3 9)))
 (let (($x3128 (= cell_1_3 8)))
 (let (($x525 (= cell_1_3 7)))
 (let (($x4141 (= cell_1_3 6)))
 (let (($x921 (= cell_1_3 5)))
 (let (($x2395 (= cell_1_3 4)))
 (let (($x342 (= cell_1_3 3)))
 (let (($x1150 (= cell_1_3 2)))
 (let (($x2806 (= cell_1_3 1)))
 (or $x2806 $x1150 $x342 $x2395 $x921 $x4141 $x525 $x3128 $x642)))))))))))
(assert
 (let (($x2006 (= cell_2_3 9)))
 (let (($x3151 (= cell_2_3 8)))
 (let (($x1093 (= cell_2_3 7)))
 (let (($x2798 (= cell_2_3 6)))
 (let (($x1540 (= cell_2_3 5)))
 (let (($x2264 (= cell_2_3 4)))
 (let (($x3274 (= cell_2_3 3)))
 (let (($x2210 (= cell_2_3 2)))
 (let (($x214 (= cell_2_3 1)))
 (or $x214 $x2210 $x3274 $x2264 $x1540 $x2798 $x1093 $x3151 $x2006)))))))))))
(assert
 (let (($x2372 (= cell_3_3 9)))
 (let (($x2483 (= cell_3_3 8)))
 (let (($x1978 (= cell_3_3 7)))
 (let (($x2087 (= cell_3_3 6)))
 (let (($x1847 (= cell_3_3 5)))
 (let (($x325 (= cell_3_3 4)))
 (let (($x2788 (= cell_3_3 3)))
 (let (($x839 (= cell_3_3 2)))
 (let (($x3004 (= cell_3_3 1)))
 (or $x3004 $x839 $x2788 $x325 $x1847 $x2087 $x1978 $x2483 $x2372)))))))))))
(assert
 (let (($x2626 (= cell_4_3 9)))
 (let (($x26 (= cell_4_3 8)))
 (let (($x2504 (= cell_4_3 7)))
 (let (($x607 (= cell_4_3 6)))
 (let (($x384 (= cell_4_3 5)))
 (let (($x3228 (= cell_4_3 4)))
 (let (($x2113 (= cell_4_3 3)))
 (let (($x3311 (= cell_4_3 2)))
 (let (($x1584 (= cell_4_3 1)))
 (or $x1584 $x3311 $x2113 $x3228 $x384 $x607 $x2504 $x26 $x2626)))))))))))
(assert
 (let (($x376 (= cell_5_3 9)))
 (let (($x793 (= cell_5_3 8)))
 (let (($x2686 (= cell_5_3 7)))
 (let (($x523 (= cell_5_3 6)))
 (let (($x2186 (= cell_5_3 5)))
 (let (($x2042 (= cell_5_3 4)))
 (let (($x919 (= cell_5_3 3)))
 (let (($x646 (= cell_5_3 2)))
 (let (($x2769 (= cell_5_3 1)))
 (or $x2769 $x646 $x919 $x2042 $x2186 $x523 $x2686 $x793 $x376)))))))))))
(assert
 (let (($x3153 (= cell_6_3 9)))
 (let (($x2562 (= cell_6_3 8)))
 (let (($x2209 (= cell_6_3 7)))
 (let (($x1065 (= cell_6_3 6)))
 (let (($x225 (= cell_6_3 5)))
 (let (($x1278 (= cell_6_3 4)))
 (let (($x184 (= cell_6_3 3)))
 (let (($x410 (= cell_6_3 2)))
 (let (($x1557 (= cell_6_3 1)))
 (or $x1557 $x410 $x184 $x1278 $x225 $x1065 $x2209 $x2562 $x3153)))))))))))
(assert
 (let (($x2488 (= cell_7_3 2)))
 (or (= cell_7_3 1) $x2488 (= cell_7_3 3) (= cell_7_3 4) (= cell_7_3 5) (= cell_7_3 6) (= cell_7_3 7) (= cell_7_3 8) (= cell_7_3 9))))
(assert
 (let (($x2687 (= cell_8_3 9)))
 (let (($x2606 (= cell_8_3 8)))
 (let (($x2594 (= cell_8_3 7)))
 (let (($x3406 (= cell_8_3 6)))
 (let (($x458 (= cell_8_3 5)))
 (let (($x1629 (= cell_8_3 4)))
 (let (($x817 (= cell_8_3 3)))
 (let (($x541 (= cell_8_3 2)))
 (let (($x957 (= cell_8_3 1)))
 (or $x957 $x541 $x817 $x1629 $x458 $x3406 $x2594 $x2606 $x2687)))))))))))
(assert
 (let (($x1067 (= cell_9_3 1)))
 (or $x1067 (= cell_9_3 2) (= cell_9_3 3) (= cell_9_3 4) (= cell_9_3 5) (= cell_9_3 6) (= cell_9_3 7) (= cell_9_3 8) (= cell_9_3 9))))
(assert
 (let (($x497 (= cell_1_4 9)))
 (let (($x3375 (= cell_1_4 8)))
 (let (($x332 (= cell_1_4 7)))
 (let (($x307 (= cell_1_4 6)))
 (let (($x2277 (= cell_1_4 5)))
 (let (($x1316 (= cell_1_4 4)))
 (let (($x1839 (= cell_1_4 3)))
 (let (($x3994 (= cell_1_4 2)))
 (let (($x3209 (= cell_1_4 1)))
 (or $x3209 $x3994 $x1839 $x1316 $x2277 $x307 $x332 $x3375 $x497)))))))))))
(assert
 (let (($x392 (= cell_2_4 9)))
 (let (($x2847 (= cell_2_4 8)))
 (let (($x73 (= cell_2_4 7)))
 (let (($x2713 (= cell_2_4 6)))
 (let (($x2615 (= cell_2_4 5)))
 (let (($x2405 (= cell_2_4 4)))
 (let (($x1552 (= cell_2_4 3)))
 (let (($x1704 (= cell_2_4 2)))
 (let (($x2971 (= cell_2_4 1)))
 (or $x2971 $x1704 $x1552 $x2405 $x2615 $x2713 $x73 $x2847 $x392)))))))))))
(assert
 (let (($x2946 (= cell_3_4 1)))
 (or $x2946 (= cell_3_4 2) (= cell_3_4 3) (= cell_3_4 4) (= cell_3_4 5) (= cell_3_4 6) (= cell_3_4 7) (= cell_3_4 8) (= cell_3_4 9))))
(assert
 (let (($x404 (= cell_4_4 9)))
 (let (($x216 (= cell_4_4 8)))
 (let (($x568 (= cell_4_4 7)))
 (let (($x1787 (= cell_4_4 6)))
 (let (($x2410 (= cell_4_4 5)))
 (let (($x7983 (= cell_4_4 4)))
 (let (($x1866 (= cell_4_4 3)))
 (let (($x2550 (= cell_4_4 2)))
 (let (($x2256 (= cell_4_4 1)))
 (or $x2256 $x2550 $x1866 $x7983 $x2410 $x1787 $x568 $x216 $x404)))))))))))
(assert
 (let (($x1102 (= cell_5_4 9)))
 (let (($x3052 (= cell_5_4 8)))
 (let (($x2365 (= cell_5_4 7)))
 (let (($x2784 (= cell_5_4 6)))
 (let (($x1015 (= cell_5_4 5)))
 (let (($x1053 (= cell_5_4 4)))
 (let (($x680 (= cell_5_4 3)))
 (let (($x291 (= cell_5_4 2)))
 (let (($x789 (= cell_5_4 1)))
 (or $x789 $x291 $x680 $x1053 $x1015 $x2784 $x2365 $x3052 $x1102)))))))))))
(assert
 (let (($x2935 (= cell_6_4 9)))
 (let (($x1846 (= cell_6_4 8)))
 (let (($x2657 (= cell_6_4 7)))
 (let (($x1333 (= cell_6_4 6)))
 (let (($x171 (= cell_6_4 5)))
 (let (($x1344 (= cell_6_4 4)))
 (let (($x1590 (= cell_6_4 3)))
 (let (($x1785 (= cell_6_4 2)))
 (let (($x2707 (= cell_6_4 1)))
 (or $x2707 $x1785 $x1590 $x1344 $x171 $x1333 $x2657 $x1846 $x2935)))))))))))
(assert
 (let (($x1786 (= cell_7_4 9)))
 (let (($x2530 (= cell_7_4 8)))
 (let (($x1858 (= cell_7_4 7)))
 (let (($x657 (= cell_7_4 6)))
 (let (($x984 (= cell_7_4 5)))
 (let (($x2044 (= cell_7_4 4)))
 (let (($x2999 (= cell_7_4 3)))
 (let (($x2274 (= cell_7_4 2)))
 (let (($x2677 (= cell_7_4 1)))
 (or $x2677 $x2274 $x2999 $x2044 $x984 $x657 $x1858 $x2530 $x1786)))))))))))
(assert
 (let (($x3103 (= cell_8_4 9)))
 (let (($x1823 (= cell_8_4 8)))
 (let (($x2651 (= cell_8_4 7)))
 (let (($x3086 (= cell_8_4 6)))
 (let (($x2792 (= cell_8_4 5)))
 (let (($x3177 (= cell_8_4 4)))
 (let (($x1320 (= cell_8_4 3)))
 (let (($x479 (= cell_8_4 2)))
 (let (($x3400 (= cell_8_4 1)))
 (or $x3400 $x479 $x1320 $x3177 $x2792 $x3086 $x2651 $x1823 $x3103)))))))))))
(assert
 (let (($x853 (= cell_9_4 2)))
 (let (($x1500 (= cell_9_4 1)))
 (or $x1500 $x853 (= cell_9_4 3) (= cell_9_4 4) (= cell_9_4 5) (= cell_9_4 6) (= cell_9_4 7) (= cell_9_4 8) (= cell_9_4 9)))))
(assert
 (let (($x2099 (= cell_1_5 9)))
 (let (($x2190 (= cell_1_5 8)))
 (let (($x2839 (= cell_1_5 7)))
 (let (($x3385 (= cell_1_5 6)))
 (let (($x2588 (= cell_1_5 5)))
 (let (($x3073 (= cell_1_5 4)))
 (let (($x1138 (= cell_1_5 3)))
 (let (($x2433 (= cell_1_5 2)))
 (let (($x2889 (= cell_1_5 1)))
 (or $x2889 $x2433 $x1138 $x3073 $x2588 $x3385 $x2839 $x2190 $x2099)))))))))))
(assert
 (let (($x2874 (= cell_2_5 2)))
 (or (= cell_2_5 1) $x2874 (= cell_2_5 3) (= cell_2_5 4) (= cell_2_5 5) (= cell_2_5 6) (= cell_2_5 7) (= cell_2_5 8) (= cell_2_5 9))))
(assert
 (let (($x2325 (= cell_3_5 9)))
 (let (($x1444 (= cell_3_5 8)))
 (let (($x3126 (= cell_3_5 7)))
 (let (($x2217 (= cell_3_5 6)))
 (let (($x1321 (= cell_3_5 5)))
 (let (($x1354 (= cell_3_5 4)))
 (let (($x1369 (= cell_3_5 3)))
 (let (($x1679 (= cell_3_5 2)))
 (let (($x937 (= cell_3_5 1)))
 (or $x937 $x1679 $x1369 $x1354 $x1321 $x2217 $x3126 $x1444 $x2325)))))))))))
(assert
 (let (($x1313 (= cell_4_5 9)))
 (let (($x1573 (= cell_4_5 8)))
 (let (($x966 (= cell_4_5 7)))
 (let (($x2246 (= cell_4_5 6)))
 (let (($x2452 (= cell_4_5 5)))
 (let (($x1855 (= cell_4_5 4)))
 (let (($x341 (= cell_4_5 3)))
 (let (($x4015 (= cell_4_5 2)))
 (let (($x1351 (= cell_4_5 1)))
 (or $x1351 $x4015 $x341 $x1855 $x2452 $x2246 $x966 $x1573 $x1313)))))))))))
(assert
 (let (($x1795 (= cell_5_5 9)))
 (let (($x2249 (= cell_5_5 8)))
 (let (($x32 (= cell_5_5 7)))
 (let (($x237 (= cell_5_5 6)))
 (let (($x375 (= cell_5_5 5)))
 (let (($x1943 (= cell_5_5 4)))
 (let (($x1238 (= cell_5_5 3)))
 (let (($x496 (= cell_5_5 2)))
 (let (($x838 (= cell_5_5 1)))
 (or $x838 $x496 $x1238 $x1943 $x375 $x237 $x32 $x2249 $x1795)))))))))))
(assert
 (let (($x757 (= cell_6_5 9)))
 (let (($x3212 (= cell_6_5 8)))
 (let (($x147 (= cell_6_5 7)))
 (let (($x1276 (= cell_6_5 6)))
 (let (($x1993 (= cell_6_5 5)))
 (let (($x1154 (= cell_6_5 4)))
 (let (($x2218 (= cell_6_5 3)))
 (let (($x2235 (= cell_6_5 2)))
 (let (($x3309 (= cell_6_5 1)))
 (or $x3309 $x2235 $x2218 $x1154 $x1993 $x1276 $x147 $x3212 $x757)))))))))))
(assert
 (let (($x2124 (= cell_7_5 9)))
 (let (($x2404 (= cell_7_5 8)))
 (let (($x2319 (= cell_7_5 7)))
 (let (($x3117 (= cell_7_5 6)))
 (let (($x3686 (= cell_7_5 5)))
 (let (($x688 (= cell_7_5 4)))
 (let (($x501 (= cell_7_5 3)))
 (let (($x477 (= cell_7_5 2)))
 (let (($x583 (= cell_7_5 1)))
 (or $x583 $x477 $x501 $x688 $x3686 $x3117 $x2319 $x2404 $x2124)))))))))))
(assert
 (let (($x6791 (= cell_8_5 1)))
 (or $x6791 (= cell_8_5 2) (= cell_8_5 3) (= cell_8_5 4) (= cell_8_5 5) (= cell_8_5 6) (= cell_8_5 7) (= cell_8_5 8) (= cell_8_5 9))))
(assert
 (let (($x653 (= cell_9_5 2)))
 (let (($x970 (= cell_9_5 1)))
 (or $x970 $x653 (= cell_9_5 3) (= cell_9_5 4) (= cell_9_5 5) (= cell_9_5 6) (= cell_9_5 7) (= cell_9_5 8) (= cell_9_5 9)))))
(assert
 (let (($x2280 (= cell_1_6 9)))
 (let (($x3480 (= cell_1_6 8)))
 (let (($x1477 (= cell_1_6 7)))
 (let (($x2904 (= cell_1_6 6)))
 (let (($x2564 (= cell_1_6 5)))
 (let (($x3143 (= cell_1_6 4)))
 (let (($x1536 (= cell_1_6 3)))
 (let (($x1684 (= cell_1_6 2)))
 (let (($x1186 (= cell_1_6 1)))
 (or $x1186 $x1684 $x1536 $x3143 $x2564 $x2904 $x1477 $x3480 $x2280)))))))))))
(assert
 (let (($x23 (= cell_2_6 9)))
 (let (($x1635 (= cell_2_6 8)))
 (let (($x2091 (= cell_2_6 7)))
 (let (($x8354 (= cell_2_6 6)))
 (let (($x2779 (= cell_2_6 5)))
 (let (($x2654 (= cell_2_6 4)))
 (let (($x1925 (= cell_2_6 3)))
 (let (($x3147 (= cell_2_6 2)))
 (let (($x1907 (= cell_2_6 1)))
 (or $x1907 $x3147 $x1925 $x2654 $x2779 $x8354 $x2091 $x1635 $x23)))))))))))
(assert
 (let (($x950 (= cell_3_6 9)))
 (let (($x3046 (= cell_3_6 8)))
 (let (($x97 (= cell_3_6 7)))
 (let (($x3264 (= cell_3_6 6)))
 (let (($x2495 (= cell_3_6 5)))
 (let (($x815 (= cell_3_6 4)))
 (let (($x1499 (= cell_3_6 3)))
 (let (($x3257 (= cell_3_6 2)))
 (let (($x1650 (= cell_3_6 1)))
 (or $x1650 $x3257 $x1499 $x815 $x2495 $x3264 $x97 $x3046 $x950)))))))))))
(assert
 (let (($x2507 (= cell_4_6 9)))
 (let (($x695 (= cell_4_6 8)))
 (let (($x1258 (= cell_4_6 7)))
 (let (($x1271 (= cell_4_6 6)))
 (let (($x2303 (= cell_4_6 5)))
 (let (($x2045 (= cell_4_6 4)))
 (let (($x243 (= cell_4_6 3)))
 (let (($x940 (= cell_4_6 2)))
 (let (($x3139 (= cell_4_6 1)))
 (or $x3139 $x940 $x243 $x2045 $x2303 $x1271 $x1258 $x695 $x2507)))))))))))
(assert
 (let (($x869 (= cell_5_6 2)))
 (or (= cell_5_6 1) $x869 (= cell_5_6 3) (= cell_5_6 4) (= cell_5_6 5) (= cell_5_6 6) (= cell_5_6 7) (= cell_5_6 8) (= cell_5_6 9))))
(assert
 (let (($x4032 (= cell_6_6 1)))
 (or $x4032 (= cell_6_6 2) (= cell_6_6 3) (= cell_6_6 4) (= cell_6_6 5) (= cell_6_6 6) (= cell_6_6 7) (= cell_6_6 8) (= cell_6_6 9))))
(assert
 (let (($x944 (= cell_7_6 9)))
 (let (($x1697 (= cell_7_6 8)))
 (let (($x1474 (= cell_7_6 7)))
 (let (($x932 (= cell_7_6 6)))
 (let (($x1681 (= cell_7_6 5)))
 (let (($x753 (= cell_7_6 4)))
 (let (($x1569 (= cell_7_6 3)))
 (let (($x457 (= cell_7_6 2)))
 (let (($x2384 (= cell_7_6 1)))
 (or $x2384 $x457 $x1569 $x753 $x1681 $x932 $x1474 $x1697 $x944)))))))))))
(assert
 (let (($x6788 (= cell_8_6 9)))
 (let (($x1625 (= cell_8_6 8)))
 (let (($x1183 (= cell_8_6 7)))
 (let (($x1760 (= cell_8_6 6)))
 (let (($x303 (= cell_8_6 5)))
 (let (($x2337 (= cell_8_6 4)))
 (let (($x3280 (= cell_8_6 3)))
 (let (($x1060 (= cell_8_6 2)))
 (let (($x1595 (= cell_8_6 1)))
 (or $x1595 $x1060 $x3280 $x2337 $x303 $x1760 $x1183 $x1625 $x6788)))))))))))
(assert
 (let (($x2951 (= cell_9_6 2)))
 (let (($x34 (= cell_9_6 1)))
 (or $x34 $x2951 (= cell_9_6 3) (= cell_9_6 4) (= cell_9_6 5) (= cell_9_6 6) (= cell_9_6 7) (= cell_9_6 8) (= cell_9_6 9)))))
(assert
 (let (($x1273 (= cell_1_7 9)))
 (let (($x80 (= cell_1_7 8)))
 (let (($x1068 (= cell_1_7 7)))
 (let (($x1867 (= cell_1_7 6)))
 (let (($x798 (= cell_1_7 5)))
 (let (($x3087 (= cell_1_7 4)))
 (let (($x1117 (= cell_1_7 3)))
 (let (($x6627 (= cell_1_7 2)))
 (let (($x2857 (= cell_1_7 1)))
 (or $x2857 $x6627 $x1117 $x3087 $x798 $x1867 $x1068 $x80 $x1273)))))))))))
(assert
 (let (($x2497 (= cell_2_7 9)))
 (let (($x572 (= cell_2_7 8)))
 (let (($x2414 (= cell_2_7 7)))
 (let (($x1734 (= cell_2_7 6)))
 (let (($x3237 (= cell_2_7 5)))
 (let (($x2716 (= cell_2_7 4)))
 (let (($x1403 (= cell_2_7 3)))
 (let (($x3066 (= cell_2_7 2)))
 (let (($x783 (= cell_2_7 1)))
 (or $x783 $x3066 $x1403 $x2716 $x3237 $x1734 $x2414 $x572 $x2497)))))))))))
(assert
 (let (($x2430 (= cell_3_7 9)))
 (let (($x689 (= cell_3_7 8)))
 (let (($x1269 (= cell_3_7 7)))
 (let (($x3071 (= cell_3_7 6)))
 (let (($x386 (= cell_3_7 5)))
 (let (($x905 (= cell_3_7 4)))
 (let (($x1597 (= cell_3_7 3)))
 (let (($x1336 (= cell_3_7 2)))
 (let (($x2964 (= cell_3_7 1)))
 (or $x2964 $x1336 $x1597 $x905 $x386 $x3071 $x1269 $x689 $x2430)))))))))))
(assert
 (let (($x2794 (= cell_4_7 9)))
 (let (($x43 (= cell_4_7 8)))
 (let (($x628 (= cell_4_7 7)))
 (let (($x1853 (= cell_4_7 6)))
 (let (($x1292 (= cell_4_7 5)))
 (let (($x408 (= cell_4_7 4)))
 (let (($x1862 (= cell_4_7 3)))
 (let (($x2620 (= cell_4_7 2)))
 (let (($x813 (= cell_4_7 1)))
 (or $x813 $x2620 $x1862 $x408 $x1292 $x1853 $x628 $x43 $x2794)))))))))))
(assert
 (let (($x218 (= cell_5_7 9)))
 (let (($x792 (= cell_5_7 8)))
 (let (($x1997 (= cell_5_7 7)))
 (let (($x336 (= cell_5_7 6)))
 (let (($x690 (= cell_5_7 5)))
 (let (($x1131 (= cell_5_7 4)))
 (let (($x1349 (= cell_5_7 3)))
 (let (($x156 (= cell_5_7 2)))
 (let (($x223 (= cell_5_7 1)))
 (or $x223 $x156 $x1349 $x1131 $x690 $x336 $x1997 $x792 $x218)))))))))))
(assert
 (let (($x239 (= cell_6_7 9)))
 (let (($x1223 (= cell_6_7 8)))
 (let (($x285 (= cell_6_7 7)))
 (let (($x1754 (= cell_6_7 6)))
 (let (($x2383 (= cell_6_7 5)))
 (let (($x1632 (= cell_6_7 4)))
 (let (($x430 (= cell_6_7 3)))
 (let (($x1156 (= cell_6_7 2)))
 (let (($x2198 (= cell_6_7 1)))
 (or $x2198 $x1156 $x430 $x1632 $x2383 $x1754 $x285 $x1223 $x239)))))))))))
(assert
 (let (($x531 (= cell_7_7 1)))
 (or $x531 (= cell_7_7 2) (= cell_7_7 3) (= cell_7_7 4) (= cell_7_7 5) (= cell_7_7 6) (= cell_7_7 7) (= cell_7_7 8) (= cell_7_7 9))))
(assert
 (let (($x261 (= cell_8_7 2)))
 (or (= cell_8_7 1) $x261 (= cell_8_7 3) (= cell_8_7 4) (= cell_8_7 5) (= cell_8_7 6) (= cell_8_7 7) (= cell_8_7 8) (= cell_8_7 9))))
(assert
 (let (($x2289 (= cell_9_7 2)))
 (let (($x1335 (= cell_9_7 1)))
 (or $x1335 $x2289 (= cell_9_7 3) (= cell_9_7 4) (= cell_9_7 5) (= cell_9_7 6) (= cell_9_7 7) (= cell_9_7 8) (= cell_9_7 9)))))
(assert
 (let (($x1779 (= cell_1_8 1)))
 (or $x1779 (= cell_1_8 2) (= cell_1_8 3) (= cell_1_8 4) (= cell_1_8 5) (= cell_1_8 6) (= cell_1_8 7) (= cell_1_8 8) (= cell_1_8 9))))
(assert
 (let (($x1050 (= cell_2_8 9)))
 (let (($x684 (= cell_2_8 8)))
 (let (($x3242 (= cell_2_8 7)))
 (let (($x1083 (= cell_2_8 6)))
 (let (($x2885 (= cell_2_8 5)))
 (let (($x1331 (= cell_2_8 4)))
 (let (($x3290 (= cell_2_8 3)))
 (let (($x1049 (= cell_2_8 2)))
 (let (($x1579 (= cell_2_8 1)))
 (or $x1579 $x1049 $x3290 $x1331 $x2885 $x1083 $x3242 $x684 $x1050)))))))))))
(assert
 (let (($x945 (= cell_3_8 9)))
 (let (($x1414 (= cell_3_8 8)))
 (let (($x899 (= cell_3_8 7)))
 (let (($x8295 (= cell_3_8 6)))
 (let (($x627 (= cell_3_8 5)))
 (let (($x369 (= cell_3_8 4)))
 (let (($x953 (= cell_3_8 3)))
 (let (($x1425 (= cell_3_8 2)))
 (let (($x814 (= cell_3_8 1)))
 (or $x814 $x1425 $x953 $x369 $x627 $x8295 $x899 $x1414 $x945)))))))))))
(assert
 (let (($x1545 (= cell_4_8 9)))
 (let (($x2500 (= cell_4_8 8)))
 (let (($x1617 (= cell_4_8 7)))
 (let (($x3995 (= cell_4_8 6)))
 (let (($x892 (= cell_4_8 5)))
 (let (($x125 (= cell_4_8 4)))
 (let (($x1230 (= cell_4_8 3)))
 (let (($x1954 (= cell_4_8 2)))
 (let (($x1008 (= cell_4_8 1)))
 (or $x1008 $x1954 $x1230 $x125 $x892 $x3995 $x1617 $x2500 $x1545)))))))))))
(assert
 (let (($x6738 (= cell_5_8 9)))
 (let (($x486 (= cell_5_8 8)))
 (let (($x1755 (= cell_5_8 7)))
 (let (($x1782 (= cell_5_8 6)))
 (let (($x370 (= cell_5_8 5)))
 (let (($x1655 (= cell_5_8 4)))
 (let (($x875 (= cell_5_8 3)))
 (let (($x703 (= cell_5_8 2)))
 (let (($x1044 (= cell_5_8 1)))
 (or $x1044 $x703 $x875 $x1655 $x370 $x1782 $x1755 $x486 $x6738)))))))))))
(assert
 (let (($x665 (= cell_6_8 2)))
 (or (= cell_6_8 1) $x665 (= cell_6_8 3) (= cell_6_8 4) (= cell_6_8 5) (= cell_6_8 6) (= cell_6_8 7) (= cell_6_8 8) (= cell_6_8 9))))
(assert
 (let (($x244 (= cell_7_8 9)))
 (let (($x2377 (= cell_7_8 8)))
 (let (($x227 (= cell_7_8 7)))
 (let (($x1439 (= cell_7_8 6)))
 (let (($x1824 (= cell_7_8 5)))
 (let (($x2666 (= cell_7_8 4)))
 (let (($x2034 (= cell_7_8 3)))
 (let (($x2308 (= cell_7_8 2)))
 (let (($x574 (= cell_7_8 1)))
 (or $x574 $x2308 $x2034 $x2666 $x1824 $x1439 $x227 $x2377 $x244)))))))))))
(assert
 (let (($x107 (= cell_8_8 2)))
 (let (($x1140 (= cell_8_8 1)))
 (or $x1140 $x107 (= cell_8_8 3) (= cell_8_8 4) (= cell_8_8 5) (= cell_8_8 6) (= cell_8_8 7) (= cell_8_8 8) (= cell_8_8 9)))))
(assert
 (let (($x345 (= cell_9_8 2)))
 (let (($x1268 (= cell_9_8 1)))
 (or $x1268 $x345 (= cell_9_8 3) (= cell_9_8 4) (= cell_9_8 5) (= cell_9_8 6) (= cell_9_8 7) (= cell_9_8 8) (= cell_9_8 9)))))
(assert
 (let (($x2208 (= cell_1_9 2)))
 (or (= cell_1_9 1) $x2208 (= cell_1_9 3) (= cell_1_9 4) (= cell_1_9 5) (= cell_1_9 6) (= cell_1_9 7) (= cell_1_9 8) (= cell_1_9 9))))
(assert
 (let (($x718 (= cell_2_9 9)))
 (let (($x1619 (= cell_2_9 8)))
 (let (($x2086 (= cell_2_9 7)))
 (let (($x3417 (= cell_2_9 6)))
 (let (($x1752 (= cell_2_9 5)))
 (let (($x385 (= cell_2_9 4)))
 (let (($x353 (= cell_2_9 3)))
 (let (($x2862 (= cell_2_9 2)))
 (let (($x2055 (= cell_2_9 1)))
 (or $x2055 $x2862 $x353 $x385 $x1752 $x3417 $x2086 $x1619 $x718)))))))))))
(assert
 (let (($x308 (= cell_3_9 9)))
 (let (($x661 (= cell_3_9 8)))
 (let (($x2064 (= cell_3_9 7)))
 (let (($x2282 (= cell_3_9 6)))
 (let (($x1437 (= cell_3_9 5)))
 (let (($x1733 (= cell_3_9 4)))
 (let (($x513 (= cell_3_9 3)))
 (let (($x417 (= cell_3_9 2)))
 (let (($x3316 (= cell_3_9 1)))
 (or $x3316 $x417 $x513 $x1733 $x1437 $x2282 $x2064 $x661 $x308)))))))))))
(assert
 (let (($x2175 (= cell_4_9 1)))
 (or $x2175 (= cell_4_9 2) (= cell_4_9 3) (= cell_4_9 4) (= cell_4_9 5) (= cell_4_9 6) (= cell_4_9 7) (= cell_4_9 8) (= cell_4_9 9))))
(assert
 (let (($x2860 (= cell_5_9 9)))
 (let (($x884 (= cell_5_9 8)))
 (let (($x406 (= cell_5_9 7)))
 (let (($x2275 (= cell_5_9 6)))
 (let (($x2823 (= cell_5_9 5)))
 (let (($x2422 (= cell_5_9 4)))
 (let (($x1840 (= cell_5_9 3)))
 (let (($x1919 (= cell_5_9 2)))
 (let (($x2541 (= cell_5_9 1)))
 (or $x2541 $x1919 $x1840 $x2422 $x2823 $x2275 $x406 $x884 $x2860)))))))))))
(assert
 (let (($x487 (= cell_6_9 2)))
 (let (($x2025 (= cell_6_9 1)))
 (or $x2025 $x487 (= cell_6_9 3) (= cell_6_9 4) (= cell_6_9 5) (= cell_6_9 6) (= cell_6_9 7) (= cell_6_9 8) (= cell_6_9 9)))))
(assert
 (let (($x136 (= cell_7_9 9)))
 (let (($x596 (= cell_7_9 8)))
 (let (($x483 (= cell_7_9 7)))
 (let (($x2486 (= cell_7_9 6)))
 (let (($x1159 (= cell_7_9 5)))
 (let (($x1935 (= cell_7_9 4)))
 (let (($x1910 (= cell_7_9 3)))
 (let (($x548 (= cell_7_9 2)))
 (let (($x2026 (= cell_7_9 1)))
 (or $x2026 $x548 $x1910 $x1935 $x1159 $x2486 $x483 $x596 $x136)))))))))))
(assert
 (let (($x542 (= cell_8_9 2)))
 (let (($x961 (= cell_8_9 1)))
 (or $x961 $x542 (= cell_8_9 3) (= cell_8_9 4) (= cell_8_9 5) (= cell_8_9 6) (= cell_8_9 7) (= cell_8_9 8) (= cell_8_9 9)))))
(assert
 (let (($x60 (= cell_9_9 2)))
 (let (($x2382 (= cell_9_9 1)))
 (or $x2382 $x60 (= cell_9_9 3) (= cell_9_9 4) (= cell_9_9 5) (= cell_9_9 6) (= cell_9_9 7) (= cell_9_9 8) (= cell_9_9 9)))))
(assert
 (and (distinct cell_1_1 cell_1_2 cell_1_3 cell_1_4 cell_1_5 cell_1_6 cell_1_7 cell_1_8 cell_1_9) true))
(assert
 (and (distinct cell_2_1 cell_2_2 cell_2_3 cell_2_4 cell_2_5 cell_2_6 cell_2_7 cell_2_8 cell_2_9) true))
(assert
 (and (distinct cell_3_1 cell_3_2 cell_3_3 cell_3_4 cell_3_5 cell_3_6 cell_3_7 cell_3_8 cell_3_9) true))
(assert
 (and (distinct cell_4_1 cell_4_2 cell_4_3 cell_4_4 cell_4_5 cell_4_6 cell_4_7 cell_4_8 cell_4_9) true))
(assert
 (and (distinct cell_5_1 cell_5_2 cell_5_3 cell_5_4 cell_5_5 cell_5_6 cell_5_7 cell_5_8 cell_5_9) true))
(assert
 (and (distinct cell_6_1 cell_6_2 cell_6_3 cell_6_4 cell_6_5 cell_6_6 cell_6_7 cell_6_8 cell_6_9) true))
(assert
 (and (distinct cell_7_1 cell_7_2 cell_7_3 cell_7_4 cell_7_5 cell_7_6 cell_7_7 cell_7_8 cell_7_9) true))
(assert
 (and (distinct cell_8_1 cell_8_2 cell_8_3 cell_8_4 cell_8_5 cell_8_6 cell_8_7 cell_8_8 cell_8_9) true))
(assert
 (and (distinct cell_9_1 cell_9_2 cell_9_3 cell_9_4 cell_9_5 cell_9_6 cell_9_7 cell_9_8 cell_9_9) true))
(assert
 (and (distinct cell_1_1 cell_2_1 cell_3_1 cell_4_1 cell_5_1 cell_6_1 cell_7_1 cell_8_1 cell_9_1) true))
(assert
 (and (distinct cell_1_2 cell_2_2 cell_3_2 cell_4_2 cell_5_2 cell_6_2 cell_7_2 cell_8_2 cell_9_2) true))
(assert
 (and (distinct cell_1_3 cell_2_3 cell_3_3 cell_4_3 cell_5_3 cell_6_3 cell_7_3 cell_8_3 cell_9_3) true))
(assert
 (and (distinct cell_1_4 cell_2_4 cell_3_4 cell_4_4 cell_5_4 cell_6_4 cell_7_4 cell_8_4 cell_9_4) true))
(assert
 (and (distinct cell_1_5 cell_2_5 cell_3_5 cell_4_5 cell_5_5 cell_6_5 cell_7_5 cell_8_5 cell_9_5) true))
(assert
 (and (distinct cell_1_6 cell_2_6 cell_3_6 cell_4_6 cell_5_6 cell_6_6 cell_7_6 cell_8_6 cell_9_6) true))
(assert
 (and (distinct cell_1_7 cell_2_7 cell_3_7 cell_4_7 cell_5_7 cell_6_7 cell_7_7 cell_8_7 cell_9_7) true))
(assert
 (and (distinct cell_1_8 cell_2_8 cell_3_8 cell_4_8 cell_5_8 cell_6_8 cell_7_8 cell_8_8 cell_9_8) true))
(assert
 (and (distinct cell_1_9 cell_2_9 cell_3_9 cell_4_9 cell_5_9 cell_6_9 cell_7_9 cell_8_9 cell_9_9) true))
(assert
 (and (distinct cell_1_1 cell_1_2 cell_1_3 cell_2_1 cell_2_2 cell_2_3 cell_3_1 cell_3_2 cell_3_3) true))
(assert
 (and (distinct cell_1_4 cell_1_5 cell_1_6 cell_2_4 cell_2_5 cell_2_6 cell_3_4 cell_3_5 cell_3_6) true))
(assert
 (and (distinct cell_1_7 cell_1_8 cell_1_9 cell_2_7 cell_2_8 cell_2_9 cell_3_7 cell_3_8 cell_3_9) true))
(assert
 (and (distinct cell_4_1 cell_4_2 cell_4_3 cell_5_1 cell_5_2 cell_5_3 cell_6_1 cell_6_2 cell_6_3) true))
(assert
 (and (distinct cell_4_4 cell_4_5 cell_4_6 cell_5_4 cell_5_5 cell_5_6 cell_6_4 cell_6_5 cell_6_6) true))
(assert
 (and (distinct cell_4_7 cell_4_8 cell_4_9 cell_5_7 cell_5_8 cell_5_9 cell_6_7 cell_6_8 cell_6_9) true))
(assert
 (and (distinct cell_7_1 cell_7_2 cell_7_3 cell_8_1 cell_8_2 cell_8_3 cell_9_1 cell_9_2 cell_9_3) true))
(assert
 (and (distinct cell_7_4 cell_7_5 cell_7_6 cell_8_4 cell_8_5 cell_8_6 cell_9_4 cell_9_5 cell_9_6) true))
(assert
 (and (distinct cell_7_7 cell_7_8 cell_7_9 cell_8_7 cell_8_8 cell_8_9 cell_9_7 cell_9_8 cell_9_9) true))
(assert
 (let (($x3348 (and (distinct cell_5_9 cell_6_8 cell_7_7 cell_8_6) true)))
 (let (($x433 (and (distinct cell_2_9 cell_3_8 cell_4_7 cell_5_6 cell_6_5 cell_7_4 cell_8_3 cell_9_2) true)))
 (let (($x2221 (and (distinct cell_1_8 cell_2_7 cell_3_6 cell_4_5 cell_5_4 cell_6_3 cell_7_2 cell_8_1) true)))
 (let (($x1700 (and (distinct cell_1_5 cell_2_4 cell_3_3 cell_4_2) true)))
 (let (($x809 (and (distinct cell_5_1 cell_6_2 cell_7_3 cell_8_4) true)))
 (let (($x2267 (and (distinct cell_2_1 cell_3_2 cell_4_3 cell_5_4 cell_6_5 cell_7_6 cell_8_7 cell_9_8) true)))
 (let (($x2360 (and (distinct cell_1_2 cell_2_3 cell_3_4 cell_4_5 cell_5_6 cell_6_7 cell_7_8 cell_8_9) true)))
 (let (($x834 (and (distinct cell_1_5 cell_2_6 cell_3_7 cell_4_8) true)))
 (and $x834 $x2360 $x2267 $x809 $x1700 $x2221 $x433 $x3348))))))))))
(assert
 (= cell_9_4 2))
(check-sat)
